15   160   15   30   30   1440   150   180   30


15   160   15   30   30   1440   180   360   30


15   160   15   30   30   360    85    180   30


15   60    30   10   3    360    10    360   30  


15   60    30   10   3    300    30    180   30


15   60    30   10   3    300    10    360   30


15   60    30   10   3    720    30    180   30


15   45    15   35   30   720    73    360   10


15   45    15   35   30   1440   168   180   15


15   75    36   25   17   1440   45    360   25

